NAME : 10_3_3_3_(28).dat
COMMENT : Henke, Speranza, Wäscher, 2015
TYPE : MCVRP
DIMENSION : 11
EDGE_WEIGHT_TYPE : DISTANCE_MATRIX
CAPACITY : 1000
VEHICLES : 3
PRODUCT TYPES : 3
COMPARTMENTS : 3
NODE_COORD_SECTION
1 50 50
2 32.96 92.75
3 45.98 12
4 19.36 73.93
5 71.5 97.73
6 94.71 92.27
7 11.23 19.75
8 50.15 36.84
9 20.49 14.49
10 62.46 15.1
11 21.29 34.38
DEMAND_SECTION
1 0 0 0
2 87 113 33
3 200 122 63
4 98 9 13
5 96 7 58
6 15 28 35
7 63 22 54
8 26 34 15
9 50 73 21
10 102 38 12
11 85 47 24
DEPOT_SECTION
1
EOF